
Gurobi 10.0.3 (linux64, gurobi_cl) logging started Fri Nov 10 18:47:47 2023

Set parameter Username
Set parameter TimeLimit to value 3600
Set parameter LogFile to value "RCPSP_1678.log"
Set parameter Threads to value 32
Academic license - for non-commercial use only - expires 2024-11-06
Using license file /home/jrivera6/gurobi-licenses/v1003/compute-0-36/gurobi.lic

Gurobi Optimizer version 10.0.3 build v10.0.3rc0 (linux64)
Copyright (c) 2023, Gurobi Optimization, LLC

Read MPS format model from file RCPSP_1678.mps
Reading time = 0.13 seconds
RCPSP_1678: 75251 rows, 29890 columns, 237025 nonzeros

CPU model: Intel(R) Xeon(R) Gold 6130 CPU @ 2.10GHz, instruction set [SSE2|AVX|AVX2|AVX512]
Thread count: 32 physical cores, 32 logical processors, using up to 32 threads

Optimize a model with 75251 rows, 29890 columns and 237025 nonzeros
Model fingerprint: 0x61d7a97d
Variable types: 122 continuous, 29768 integer (29768 binary)
Coefficient statistics:
  Matrix range     [1e+00, 6e+02]
  Objective range  [1e+00, 1e+00]
  Bounds range     [1e+00, 1e+00]
  RHS range        [1e+00, 6e+02]
Presolve removed 11751 rows and 1849 columns (presolve time = 5s) ...
Presolve removed 11751 rows and 1849 columns (presolve time = 10s) ...
Presolve removed 15036 rows and 2982 columns
Presolve time: 11.94s
Presolved: 60215 rows, 26908 columns, 198229 nonzeros
Variable types: 121 continuous, 26787 integer (26787 binary)

Deterministic concurrent LP optimizer: primal and dual simplex (primal and dual model)
Showing first log only...

Root relaxation presolved: 60215 rows, 26908 columns, 198229 nonzeros


Root simplex log...

Iteration    Objective       Primal Inf.    Dual Inf.      Time
       0    1.0404080e+02   7.955537e-03   2.275703e+08     14s
    4215    1.0400000e+02   0.000000e+00   0.000000e+00     15s
Concurrent spin time: 2.47s

Solved with primal simplex (primal model)

Root relaxation: objective 1.040000e+02, 4215 iterations, 4.57 seconds (0.37 work units)
Total elapsed time = 21.65s

    Nodes    |    Current Node    |     Objective Bounds      |     Work
 Expl Unexpl |  Obj  Depth IntInf | Incumbent    BestBd   Gap | It/Node Time

     0     0  104.00000    0  101          -  104.00000      -     -   25s
     0     0  104.00000    0  605          -  104.00000      -     -   69s
     0     0  104.00000    0  522          -  104.00000      -     -   70s
     0     0  104.00000    0  520          -  104.00000      -     -   70s
     0     0  104.00000    0  680          -  104.00000      -     -   76s
     0     0  104.00000    0  656          -  104.00000      -     -   76s
     0     0  104.00000    0   43          -  104.00000      -     -  114s
     0     0  104.00000    0   73          -  104.00000      -     -  130s
     0     0  104.00000    0    4          -  104.00000      -     -  148s
     0     0  104.00000    0   28          -  104.00000      -     -  150s
H    0     0                     104.0000000  104.00000  0.00%     -  159s
     0     0  104.00000    0   32  104.00000  104.00000  0.00%     -  159s

Cutting planes:
  Gomory: 11
  Cover: 10
  Implied bound: 14
  Clique: 2
  MIR: 145
  StrongCG: 6
  RLT: 146
  Relax-and-lift: 24

Explored 1 nodes (26891 simplex iterations) in 159.74 seconds (19.63 work units)
Thread count was 32 (of 32 available processors)

Solution count 1: 104 

Optimal solution found (tolerance 1.00e-04)
Best objective 1.040000000000e+02, best bound 1.040000000000e+02, gap 0.0000%

Wrote result file 'RCPSP_1678.sol'

